1 23843700
2 23843700
3 23843700
4 23843700
5 23843700
6 23843700
7 23843700
8 23843700
9 23843700
10 23843700
11 23447194
12 23447194
13 23447194
14 23447194
15 23447194
16 23447194
17 23447194
18 23447194
19 23251262
20 23251262
21 23055766
22 23055766
23 23055766
24 23055766
25 23055766
26 23055766
27 23055766
28 23055766
29 23055766
30 23055766
